p edge 246 236
e 1 2
e 1 3
e 1 4
e 1 5
e 1 6
e 1 7
e 1 8
e 1 9
e 1 10
e 1 11
e 1 12
e 1 13
e 1 14
e 1 15
e 1 16
e 1 17
e 18 19
e 18 20
e 18 21
e 18 22
e 18 23
e 18 24
e 18 25
e 18 26
e 18 27
e 18 28
e 18 29
e 18 30
e 18 31
e 18 32
e 18 33
e 18 34
e 35 36
e 35 37
e 35 38
e 35 39
e 35 40
e 35 41
e 35 42
e 35 43
e 35 44
e 35 45
e 35 46
e 47 48
e 47 49
e 47 50
e 47 51
e 47 52
e 47 53
e 47 54
e 47 55
e 47 56
e 47 57
e 47 58
e 47 59
e 47 60
e 47 61
e 47 62
e 47 63
e 47 64
e 47 65
e 66 67
e 66 68
e 66 69
e 66 70
e 66 71
e 66 72
e 66 73
e 66 74
e 66 75
e 66 76
e 66 77
e 66 78
e 66 79
e 66 80
e 66 81
e 66 82
e 66 83
e 66 84
e 66 85
e 66 86
e 66 87
e 66 88
e 66 89
e 66 90
e 66 91
e 66 92
e 66 93
e 66 94
e 66 95
e 66 96
e 97 98
e 97 99
e 97 100
e 97 101
e 97 102
e 97 103
e 97 104
e 97 105
e 97 106
e 97 107
e 97 108
e 97 109
e 97 110
e 97 111
e 97 112
e 97 113
e 97 114
e 97 115
e 97 116
e 97 117
e 97 118
e 97 119
e 97 120
e 97 121
e 97 122
e 97 123
e 97 124
e 97 125
e 97 126
e 97 127
e 97 128
e 97 129
e 97 130
e 97 131
e 97 132
e 97 133
e 97 134
e 135 136
e 135 137
e 135 138
e 135 139
e 135 140
e 135 141
e 135 142
e 135 143
e 135 144
e 135 145
e 135 146
e 135 147
e 135 148
e 135 149
e 135 150
e 135 151
e 135 152
e 135 153
e 135 154
e 135 155
e 135 156
e 157 158
e 157 159
e 157 160
e 157 161
e 157 162
e 157 163
e 157 164
e 157 165
e 157 166
e 157 167
e 157 168
e 157 169
e 157 170
e 157 171
e 157 172
e 157 173
e 157 174
e 157 175
e 157 176
e 157 177
e 157 178
e 157 179
e 157 180
e 157 181
e 157 182
e 157 183
e 157 184
e 157 185
e 157 186
e 157 187
e 157 188
e 157 189
e 157 190
e 157 191
e 157 192
e 157 193
e 194 195
e 194 196
e 194 197
e 194 198
e 194 199
e 194 200
e 194 201
e 194 202
e 194 203
e 194 204
e 194 205
e 194 206
e 194 207
e 208 209
e 208 210
e 208 211
e 208 212
e 208 213
e 208 214
e 208 215
e 208 216
e 208 217
e 208 218
e 208 219
e 208 220
e 208 221
e 208 222
e 208 223
e 208 224
e 208 225
e 208 226
e 208 227
e 208 228
e 208 229
e 208 230
e 208 231
e 208 232
e 208 233
e 208 234
e 208 235
e 208 236
e 208 237
e 208 238
e 208 239
e 208 240
e 208 241
e 208 242
e 208 243
e 208 244
e 208 245
e 208 246
